(declare-const BAV1 Bool)
(declare-sort Value 0)
(declare-fun p () Bool)
(declare-fun q () Bool)
(declare-fun s () Bool)
(declare-fun r () Bool)
(assert (not (=> (not (ite p q s)) r)))
(apply (then (! simplify :elim-and true) tseitin-cnf))
(assert (= BAV1 (=> (not (ite p q s)) r)))